data;


param FN:= 4;
param D:= 100;
param U_Original:=
         1         1        5.778000e-01
         2         1        1.439848e+00
         3         1       -2.148015e+00
         4         1       -3.819695e-01
         5         1        2.320620e+00
         6         1       -4.388479e-01
         7         1       -1.899914e+00
         8         1       -1.800095e+00
         9         1        6.998027e-01
        10         1        2.331877e+00
        11         1        1.988891e+00
        12         1       -1.573813e+00
        13         1       -2.218341e+00
        14         1        6.104617e-01
        15         1       -3.475360e-01
        16         1        1.049465e+00
        17         1        7.731053e-01
        18         1        1.282745e+00
        19         1       -8.014175e-01
        20         1        1.004224e+00
        21         1        4.218708e-01
        22         1       -1.098075e+00
        23         1        5.669427e-01
        24         1       -4.216335e-01
        25         1       -1.708041e-01
        26         1       -4.865475e-01
        27         1       -5.687799e-01
        28         1        5.342326e-01
        29         1        1.081369e-01
        30         1       -2.359987e+00
        31         1        1.050263e+00
        32         1       -8.828692e-01
        33         1       -1.300553e-01
        34         1        1.507424e+00
        35         1       -4.083668e-02
        36         1        5.198856e-01
        37         1       -3.162249e-01
        38         1        6.461031e-01
        39         1       -7.376546e-02
        40         1        3.078211e-01
        41         1       -8.164403e-01
        42         1        7.519842e-01
        43         1        1.229037e-01
        44         1        2.203481e-01
        45         1       -1.505827e+00
        46         1       -4.283934e-01
        47         1        3.365532e-01
        48         1       -7.432138e-01
        49         1        1.812277e-01
        50         1       -6.542142e-01
        51         1        8.287521e-01
        52         1        1.451517e+00
        53         1        1.370286e+00
        54         1        1.060435e+00
        55         1        1.228849e+00
        56         1       -3.135774e-02
        57         1       -4.862587e-01
        58         1        2.189331e+00
        59         1       -7.766908e-01
        60         1        2.610555e-02
        61         1       -2.280833e-01
        62         1        2.377958e+00
        63         1        2.751595e+00
        64         1       -1.216993e+00
        65         1        2.025862e-01
        66         1        5.399290e-01
        67         1       -5.710539e-01
        68         1        8.475584e-01
        69         1        8.066527e-01
        70         1        9.711041e-01
        71         1       -9.343026e-01
        72         1       -2.439916e+00
        73         1        1.017556e+00
        74         1        1.442036e+00
        75         1        3.831645e-01
        76         1       -3.472167e-01
        77         1       -3.386886e-01
        78         1       -6.740063e-01
        79         1       -1.448453e-01
        80         1       -1.047848e+00
        81         1       -8.793071e-01
        82         1       -1.308758e-01
        83         1       -7.635141e-01
        84         1        3.069862e-01
        85         1       -1.844410e+00
        86         1        1.233393e-01
        87         1       -7.438715e-01
        88         1        5.799440e-01
        89         1       -1.180073e+00
        90         1        1.287802e+00
        91         1       -1.105908e+00
        92         1        4.103467e-01
        93         1        9.046558e-01
        94         1       -1.255982e+00
        95         1        1.408443e+00
        96         1       -1.232435e+00
        97         1       -3.285380e-01
        98         1        3.078861e-01
        99         1        2.510268e-01
       100         1       -4.799207e-01
         1         2        1.027794e-01
         2         2       -1.595312e+00
         3         2       -1.944744e-01
         4         2        8.522537e-03
         5         2       -1.418201e+00
         6         2       -4.592234e-01
         7         2        2.850099e-01
         8         2        2.203322e+00
         9         2       -1.732626e-01
        10         2        4.449031e-01
        11         2       -1.175013e+00
        12         2       -1.070451e-01
        13         2        4.888491e-01
        14         2        7.272816e-01
        15         2        1.457925e+00
        16         2       -1.735839e+00
        17         2        4.405117e-02
        18         2        2.200158e+00
        19         2       -1.525934e+00
        20         2       -2.367309e-01
        21         2        8.093636e-01
        22         2        2.366495e-01
        23         2       -1.013541e+00
        24         2        5.880201e-01
        25         2       -1.683442e+00
        26         2        3.784857e-01
        27         2       -1.144897e+00
        28         2        7.451746e-01
        29         2       -2.067759e+00
        30         2        4.260248e-01
        31         2       -1.939545e+00
        32         2        8.154582e-02
        33         2       -5.557318e-02
        34         2       -1.143006e-01
        35         2        1.491135e-01
        36         2        7.570595e-02
        37         2        1.463811e+00
        38         2       -1.208404e+00
        39         2        1.420315e-01
        40         2        8.022112e-01
        41         2        5.443807e-01
        42         2        1.829891e-01
        43         2        6.723983e-01
        44         2        1.284601e-01
        45         2       -1.472998e-01
        46         2        6.674227e-01
        47         2        1.140574e+00
        48         2       -1.077819e+00
        49         2       -1.228847e+00
        50         2        6.801932e-01
        51         2        3.534072e-01
        52         2        1.519051e+00
        53         2       -4.703765e-01
        54         2        6.264961e-01
        55         2       -1.460294e-01
        56         2       -1.092638e+00
        57         2        7.590041e-01
        58         2       -2.478199e-01
        59         2        6.106938e-01
        60         2        9.302300e-01
        61         2        1.565951e+00
        62         2       -5.731330e-01
        63         2       -3.142670e-01
        64         2       -3.326062e-01
        65         2        1.020342e+00
        66         2       -5.969234e-01
        67         2        1.832709e+00
        68         2       -1.782561e-02
        69         2        1.614640e+00
        70         2       -2.475851e+00
        71         2        1.161059e-01
        72         2        6.957864e-01
        73         2       -2.636841e+00
        74         2        2.189163e+00
        75         2        9.373732e-01
        76         2       -1.284381e+00
        77         2       -9.256541e-02
        78         2        6.402594e-01
        79         2        1.388428e+00
        80         2        1.581735e+00
        81         2        1.357221e+00
        82         2        1.599916e+00
        83         2        1.407140e-01
        84         2       -2.458537e-02
        85         2        3.631176e-01
        86         2        9.003473e-01
        87         2        2.045304e-01
        88         2       -4.580460e-01
        89         2       -9.166520e-01
        90         2        3.003426e-01
        91         2        1.392351e-01
        92         2       -3.944696e-02
        93         2       -1.668025e+00
        94         2       -3.790745e-01
        95         2       -9.905715e-01
        96         2        3.237819e-01
        97         2       -1.130401e-01
        98         2       -6.941813e-01
        99         2       -5.561527e-01
       100         2        1.355472e+00
         1         3       -6.844983e-01
         2         3        1.204086e+00
         3         3       -1.049393e+00
         4         3       -6.585894e-01
         5         3       -6.846464e-01
         6         3       -1.790162e+00
         7         3       -6.703871e-02
         8         3        6.598145e-01
         9         3        8.876603e-01
        10         3        1.643294e+00
        11         3        1.520578e+00
        12         3       -7.787138e-01
        13         3       -9.028601e-01
        14         3        4.777403e-01
        15         3        5.900300e-01
        16         3       -2.048285e+00
        17         3        6.812832e-01
        18         3       -1.897367e-01
        19         3       -5.652547e-01
        20         3       -2.470378e-01
        21         3       -3.570826e-01
        22         3       -1.162034e+00
        23         3       -9.666927e-02
        24         3        7.722824e-02
        25         3        1.200956e+00
        26         3       -2.344824e+00
        27         3       -2.146971e+00
        28         3        4.638169e-01
        29         3       -5.571574e-01
        30         3       -6.797444e-01
        31         3       -3.347150e-01
        32         3        2.886945e-01
        33         3       -8.394353e-01
        34         3       -2.898966e-01
        35         3       -7.894533e-01
        36         3       -1.294801e+00
        37         3        1.411633e+00
        38         3       -9.989986e-01
        39         3       -2.508394e-01
        40         3       -2.342036e+00
        41         3        6.456073e-02
        42         3        5.013464e-01
        43         3       -4.774661e-01
        44         3        1.311182e+00
        45         3       -7.442766e-02
        46         3        6.012884e-01
        47         3        7.152167e-01
        48         3        6.830740e-01
        49         3       -7.093621e-01
        50         3        1.964168e-01
        51         3       -9.025353e-01
        52         3       -5.634521e-01
        53         3        1.010819e+00
        54         3       -5.566284e-01
        55         3       -1.573740e+00
        56         3        1.900705e+00
        57         3       -4.365052e-01
        58         3        3.627906e-01
        59         3        3.313953e-01
        60         3       -7.728148e-01
        61         3       -5.213545e-01
        62         3       -2.596589e-01
        63         3       -3.934054e-01
        64         3        9.463549e-01
        65         3       -2.671337e-01
        66         3        8.859372e-01
        67         3        1.968860e+00
        68         3        1.312592e+00
        69         3        1.453850e+00
        70         3       -2.057245e-01
        71         3       -1.199426e+00
        72         3        1.372062e+00
        73         3        3.240668e-01
        74         3       -5.587870e-01
        75         3       -7.749934e-01
        76         3        6.043196e-01
        77         3        2.079118e+00
        78         3        3.511536e-03
        79         3       -1.025004e+00
        80         3        2.715926e-01
        81         3        2.175335e+00
        82         3       -8.443439e-01
        83         3        1.113217e+00
        84         3        2.394406e-01
        85         3       -5.078251e-01
        86         3       -1.485043e+00
        87         3       -1.702228e+00
        88         3        2.759233e-01
        89         3        2.326589e-01
        90         3        1.853999e+00
        91         3        9.439359e-02
        92         3        5.861386e-01
        93         3        2.919207e-01
        94         3       -3.008848e+00
        95         3        1.788767e+00
        96         3        4.239588e-01
        97         3       -1.638313e+00
        98         3        6.652237e-01
        99         3        1.123170e+00
       100         3        3.282872e-01
         1         4       -6.002721e-01
         2         4        1.274372e+00
         3         4       -7.223738e-01
         4         4        5.180804e-01
         5         4        5.270838e-01
         6         4       -3.783456e-01
         7         4        8.264838e-01
         8         4        7.312623e-01
         9         4        5.592932e-01
        10         4       -1.832837e+00
        11         4        9.947652e-01
        12         4       -1.729763e+00
        13         4        1.109066e+00
        14         4        9.856706e-01
        15         4        1.013358e+00
        16         4        2.680069e-01
        17         4        7.421864e-01
        18         4       -7.261383e-02
        19         4        3.090149e-01
        20         4       -7.758263e-01
        21         4        2.192183e-01
        22         4       -6.520302e-01
        23         4       -7.475738e-01
        24         4       -8.763548e-01
        25         4        1.102914e+00
        26         4       -7.019186e-02
        27         4        1.740826e+00
        28         4        9.737363e-01
        29         4        1.354233e+00
        30         4       -1.932039e-01
        31         4        1.500618e+00
        32         4        1.427650e-01
        33         4       -2.596293e-01
        34         4       -5.316380e-01
        35         4        1.661185e+00
        36         4        4.317388e-01
        37         4       -5.257894e-01
        38         4       -1.241743e+00
        39         4       -4.924993e-01
        40         4        2.802382e-01
        41         4        8.956788e-01
        42         4        1.024505e+00
        43         4       -1.446616e+00
        44         4        5.052380e-01
        45         4       -6.616237e-01
        46         4       -1.908468e-01
        47         4       -6.052036e-01
        48         4       -1.473038e+00
        49         4       -2.498755e-01
        50         4       -7.603404e-02
        51         4        1.390956e+00
        52         4       -6.885106e-01
        53         4       -5.066446e-01
        54         4        8.419788e-01
        55         4       -4.948918e-01
        56         4        1.378559e+00
        57         4       -7.561361e-01
        58         4        1.100125e+00
        59         4        2.325139e-01
        60         4       -1.076648e+00
        61         4       -4.809966e-01
        62         4       -1.820235e-01
        63         4       -3.212401e-01
        64         4       -6.774032e-01
        65         4        4.252106e-01
        66         4       -4.619209e-01
        67         4        9.590218e-02
        68         4       -6.664683e-01
        69         4       -1.503015e+00
        70         4       -2.166648e+00
        71         4        1.239987e+00
        72         4       -1.362528e+00
        73         4       -2.521408e-01
        74         4       -1.782192e+00
        75         4       -1.838897e+00
        76         4        2.941718e-01
        77         4       -9.298955e-01
        78         4       -1.978966e-02
        79         4        5.970241e-01
        80         4        2.355358e+00
        81         4        9.408493e-01
        82         4       -3.374525e-02
        83         4        1.214869e+00
        84         4       -9.404557e-01
        85         4        2.993340e-01
        86         4        8.384423e-01
        87         4       -8.775312e-01
        88         4       -6.736286e-01
        89         4       -1.891016e+00
        90         4       -7.774597e-01
        91         4        4.634405e-03
        92         4       -1.587469e+00
        93         4        7.328914e-01
        94         4        2.178734e+00
        95         4        1.648958e-01
        96         4        1.608732e-01
        97         4        4.865429e-01
        98         4       -1.395699e+00
        99         4       -3.687962e-01
       100         4        1.417001e+00
         1         5       -1.243368e+00
         2         5        7.193850e-01
         3         5       -8.509243e-01
         4         5        6.638734e-01
         5         5       -4.542345e-01
         6         5       -5.217760e-01
         7         5       -3.822110e-02
         8         5       -3.456983e-01
         9         5        2.671852e-01
        10         5        4.503372e-02
        11         5       -1.608562e+00
        12         5        8.760895e-01
        13         5        2.646829e+00
        14         5        6.680558e-01
        15         5       -1.309468e+00
        16         5        5.165776e-01
        17         5        1.944924e-01
        18         5       -1.134236e+00
        19         5       -8.040334e-01
        20         5        1.285627e+00
        21         5        7.604649e-01
        22         5        2.503371e-01
        23         5        9.608095e-01
        24         5        2.413182e+00
        25         5       -2.162585e-01
        26         5       -2.511649e-01
        27         5        8.131396e-01
        28         5       -1.083366e-01
        29         5       -1.098170e+00
        30         5        2.022799e+00
        31         5       -1.057390e+00
        32         5       -1.004173e+00
        33         5        1.458589e+00
        34         5        6.276890e-01
        35         5        4.462754e-01
        36         5        6.155576e-01
        37         5        1.844918e+00
        38         5        2.824130e+00
        39         5       -1.066877e-01
        40         5        7.644851e-02
        41         5       -9.210883e-02
        42         5       -1.588834e+00
        43         5        2.294664e+00
        44         5       -6.682400e-02
        45         5       -4.985225e-01
        46         5        8.909264e-01
        47         5        5.838723e-01
        48         5       -1.793660e+00
        49         5        4.361057e-01
        50         5        9.857427e-03
        51         5       -3.733145e-01
        52         5        7.274831e-02
        53         5       -3.023024e-01
        54         5       -6.655812e-01
        55         5        1.468190e+00
        56         5        1.637430e-02
        57         5       -6.387654e-01
        58         5        1.214222e+00
        59         5       -5.106888e-01
        60         5       -8.747694e-01
        61         5        1.080653e+00
        62         5        1.899906e-03
        63         5       -3.562017e-01
        64         5        1.460088e-01
        65         5       -9.323837e-01
        66         5        1.272198e+00
        67         5        6.738348e-01
        68         5       -2.202289e-01
        69         5       -1.344820e+00
        70         5        7.781295e-01
        71         5       -7.101152e-01
        72         5       -1.181674e+00
        73         5        1.100888e+00
        74         5       -8.706686e-01
        75         5       -5.495971e-01
        76         5        1.716897e+00
        77         5        6.105717e-01
        78         5       -6.898777e-01
        79         5        6.411326e-01
        80         5       -1.634306e-01
        81         5       -2.002071e+00
        82         5        1.143660e+00
        83         5        3.541817e-01
        84         5       -7.247401e-01
        85         5        2.519910e-01
        86         5       -1.685730e+00
        87         5        1.200609e+00
        88         5        7.446679e-01
        89         5        9.477369e-01
        90         5        3.324453e-01
        91         5       -1.256304e+00
        92         5        6.338151e-01
        93         5        5.689240e-01
        94         5       -3.407676e-01
        95         5        1.468885e+00
        96         5        3.206302e-01
        97         5       -2.643026e-01
        98         5       -1.615956e-01
        99         5       -7.718207e-01
       100         5        1.575145e+00
;
param X_Original:=
    1       -9.345756e-01
    2       -1.079952e+00
    3        1.137563e+00
    4       -6.084244e-01
    5       -9.682631e-01
    6       -1.872479e+00
    7        8.683572e-01
    8        6.902366e-01
    9       -8.480120e-01
   10        2.138935e-01
   11       -1.753777e-01
   12        1.095313e+00
   13        4.330725e-01
   14       -2.137627e-01
   15        7.095689e-01
   16       -1.598866e+00
   17       -1.216027e+00
   18        1.637993e-03
   19        6.829779e-01
   20       -7.771244e-01
   21       -1.271001e-02
   22       -6.875792e-01
   23        1.697298e+00
   24       -1.106486e+00
   25        2.730964e-01
   26        4.126789e-01
   27       -1.377670e+00
   28        1.218904e+00
   29        7.511950e-01
   30        7.146427e-02
   31       -7.039219e-01
   32        2.848677e-01
   33       -4.769018e-01
   34       -3.897726e-01
   35        1.930066e+00
   36        7.159338e-02
   37        1.021554e+00
   38        3.718093e-01
   39       -2.980646e-01
   40        4.553308e-01
   41        2.495873e-01
   42        1.166647e+00
   43        1.292452e-01
   44        9.546126e-01
   45        1.594336e+00
   46       -8.893912e-01
   47        4.459032e-01
   48        3.669375e+00
   49        4.183023e-01
   50       -1.167428e+00
   51       -5.240822e-01
   52       -4.676313e-01
   53       -8.105356e-01
   54       -3.676899e-01
   55        1.721673e-01
   56        3.023309e-01
   57        5.667404e-01
   58       -3.893828e-01
   59        2.429517e-02
   60       -2.296001e-01
   61       -5.266828e-01
   62       -4.132566e-02
   63       -9.719493e-01
   64        2.559871e-01
   65        8.327081e-02
   66       -1.558054e-01
   67        1.114575e+00
   68       -1.438095e+00
   69       -1.394744e+00
   70        6.549254e-01
   71       -1.085631e+00
   72       -1.402613e+00
   73        6.034268e-01
   74       -1.157521e+00
   75       -5.835106e-01
   76        1.464069e+00
   77        1.071024e-01
   78        6.858667e-01
   79        9.486796e-01
   80       -2.876519e-01
   81        6.956849e-01
   82       -6.484341e-01
   83        7.671083e-01
   84       -3.840800e-01
   85       -6.269585e-01
   86        4.529972e-01
   87       -1.836517e+00
   88       -5.019136e-01
   89        4.069567e-01
   90       -1.659935e+00
   91       -9.109755e-01
   92        2.302644e-01
   93       -9.018112e-01
   94        2.505180e-01
   95        8.468191e-01
   96       -2.347443e+00
   97        2.420635e+00
   98       -7.965062e-01
   99       -8.135478e-01
  100       -4.558809e-01
;
param outliervec_original :=
    1    0
    2    1
    3    1
    4    1
    5    1
    6    1
    7    1
    8    1
    9    1
   10    0
   11    1
   12    1
   13    1
   14    1
   15    1
   16    1
   17    1
   18    0
   19    1
   20    1
   21    1
   22    1
   23    1
   24    1
   25    1
   26    1
   27    1
   28    1
   29    0
   30    1
   31    1
   32    1
   33    1
   34    1
   35    1
   36    1
   37    1
   38    1
   39    1
   40    1
   41    1
   42    0
   43    1
   44    1
   45    1
   46    1
   47    1
   48    1
   49    1
   50    1
   51    1
   52    0
   53    1
   54    1
   55    1
   56    1
   57    1
   58    1
   59    0
   60    1
   61    1
   62    1
   63    1
   64    1
   65    0
   66    1
   67    0
   68    1
   69    1
   70    1
   71    1
   72    0
   73    0
   74    1
   75    1
   76    1
   77    1
   78    1
   79    1
   80    1
   81    1
   82    1
   83    1
   84    1
   85    1
   86    1
   87    0
   88    1
   89    1
   90    1
   91    1
   92    1
   93    1
   94    1
   95    1
   96    1
   97    1
   98    1
   99    1
  100    1
;
param d:= 56;
param r:=5;
param p:=0.880000;
param M:=1000;
param U:=
         1         1        1.439848e+00
         2         1       -2.148015e+00
         3         1       -3.819695e-01
         4         1        2.320620e+00
         5         1       -1.899914e+00
         6         1       -1.800095e+00
         7         1        6.998027e-01
         8         1        2.331877e+00
         9         1        1.988891e+00
        10         1       -1.573813e+00
        11         1        6.104617e-01
        12         1       -3.475360e-01
        13         1        1.049465e+00
        14         1        7.731053e-01
        15         1        1.282745e+00
        16         1       -8.014175e-01
        17         1        1.004224e+00
        18         1       -1.098075e+00
        19         1       -4.216335e-01
        20         1       -1.708041e-01
        21         1       -5.687799e-01
        22         1       -2.359987e+00
        23         1        1.050263e+00
        24         1       -1.300553e-01
        25         1        1.507424e+00
        26         1       -7.376546e-02
        27         1       -8.164403e-01
        28         1        7.519842e-01
        29         1        2.203481e-01
        30         1       -1.505827e+00
        31         1        3.365532e-01
        32         1       -7.432138e-01
        33         1        8.287521e-01
        34         1        1.451517e+00
        35         1        1.060435e+00
        36         1       -3.135774e-02
        37         1       -4.862587e-01
        38         1       -7.766908e-01
        39         1        2.610555e-02
        40         1       -2.280833e-01
        41         1        2.751595e+00
        42         1        2.025862e-01
        43         1        5.399290e-01
        44         1       -5.710539e-01
        45         1        9.711041e-01
        46         1       -9.343026e-01
        47         1       -6.740063e-01
        48         1       -1.047848e+00
        49         1       -1.308758e-01
        50         1       -7.635141e-01
        51         1       -7.438715e-01
        52         1        5.799440e-01
        53         1       -1.180073e+00
        54         1        4.103467e-01
        55         1        9.046558e-01
        56         1       -4.799207e-01
         1         2       -1.595312e+00
         2         2       -1.944744e-01
         3         2        8.522537e-03
         4         2       -1.418201e+00
         5         2        2.850099e-01
         6         2        2.203322e+00
         7         2       -1.732626e-01
         8         2        4.449031e-01
         9         2       -1.175013e+00
        10         2       -1.070451e-01
        11         2        7.272816e-01
        12         2        1.457925e+00
        13         2       -1.735839e+00
        14         2        4.405117e-02
        15         2        2.200158e+00
        16         2       -1.525934e+00
        17         2       -2.367309e-01
        18         2        2.366495e-01
        19         2        5.880201e-01
        20         2       -1.683442e+00
        21         2       -1.144897e+00
        22         2        4.260248e-01
        23         2       -1.939545e+00
        24         2       -5.557318e-02
        25         2       -1.143006e-01
        26         2        1.420315e-01
        27         2        5.443807e-01
        28         2        1.829891e-01
        29         2        1.284601e-01
        30         2       -1.472998e-01
        31         2        1.140574e+00
        32         2       -1.077819e+00
        33         2        3.534072e-01
        34         2        1.519051e+00
        35         2        6.264961e-01
        36         2       -1.092638e+00
        37         2        7.590041e-01
        38         2        6.106938e-01
        39         2        9.302300e-01
        40         2        1.565951e+00
        41         2       -3.142670e-01
        42         2        1.020342e+00
        43         2       -5.969234e-01
        44         2        1.832709e+00
        45         2       -2.475851e+00
        46         2        1.161059e-01
        47         2        6.402594e-01
        48         2        1.581735e+00
        49         2        1.599916e+00
        50         2        1.407140e-01
        51         2        2.045304e-01
        52         2       -4.580460e-01
        53         2       -9.166520e-01
        54         2       -3.944696e-02
        55         2       -1.668025e+00
        56         2        1.355472e+00
         1         3        1.204086e+00
         2         3       -1.049393e+00
         3         3       -6.585894e-01
         4         3       -6.846464e-01
         5         3       -6.703871e-02
         6         3        6.598145e-01
         7         3        8.876603e-01
         8         3        1.643294e+00
         9         3        1.520578e+00
        10         3       -7.787138e-01
        11         3        4.777403e-01
        12         3        5.900300e-01
        13         3       -2.048285e+00
        14         3        6.812832e-01
        15         3       -1.897367e-01
        16         3       -5.652547e-01
        17         3       -2.470378e-01
        18         3       -1.162034e+00
        19         3        7.722824e-02
        20         3        1.200956e+00
        21         3       -2.146971e+00
        22         3       -6.797444e-01
        23         3       -3.347150e-01
        24         3       -8.394353e-01
        25         3       -2.898966e-01
        26         3       -2.508394e-01
        27         3        6.456073e-02
        28         3        5.013464e-01
        29         3        1.311182e+00
        30         3       -7.442766e-02
        31         3        7.152167e-01
        32         3        6.830740e-01
        33         3       -9.025353e-01
        34         3       -5.634521e-01
        35         3       -5.566284e-01
        36         3        1.900705e+00
        37         3       -4.365052e-01
        38         3        3.313953e-01
        39         3       -7.728148e-01
        40         3       -5.213545e-01
        41         3       -3.934054e-01
        42         3       -2.671337e-01
        43         3        8.859372e-01
        44         3        1.968860e+00
        45         3       -2.057245e-01
        46         3       -1.199426e+00
        47         3        3.511536e-03
        48         3        2.715926e-01
        49         3       -8.443439e-01
        50         3        1.113217e+00
        51         3       -1.702228e+00
        52         3        2.759233e-01
        53         3        2.326589e-01
        54         3        5.861386e-01
        55         3        2.919207e-01
        56         3        3.282872e-01
         1         4        1.274372e+00
         2         4       -7.223738e-01
         3         4        5.180804e-01
         4         4        5.270838e-01
         5         4        8.264838e-01
         6         4        7.312623e-01
         7         4        5.592932e-01
         8         4       -1.832837e+00
         9         4        9.947652e-01
        10         4       -1.729763e+00
        11         4        9.856706e-01
        12         4        1.013358e+00
        13         4        2.680069e-01
        14         4        7.421864e-01
        15         4       -7.261383e-02
        16         4        3.090149e-01
        17         4       -7.758263e-01
        18         4       -6.520302e-01
        19         4       -8.763548e-01
        20         4        1.102914e+00
        21         4        1.740826e+00
        22         4       -1.932039e-01
        23         4        1.500618e+00
        24         4       -2.596293e-01
        25         4       -5.316380e-01
        26         4       -4.924993e-01
        27         4        8.956788e-01
        28         4        1.024505e+00
        29         4        5.052380e-01
        30         4       -6.616237e-01
        31         4       -6.052036e-01
        32         4       -1.473038e+00
        33         4        1.390956e+00
        34         4       -6.885106e-01
        35         4        8.419788e-01
        36         4        1.378559e+00
        37         4       -7.561361e-01
        38         4        2.325139e-01
        39         4       -1.076648e+00
        40         4       -4.809966e-01
        41         4       -3.212401e-01
        42         4        4.252106e-01
        43         4       -4.619209e-01
        44         4        9.590218e-02
        45         4       -2.166648e+00
        46         4        1.239987e+00
        47         4       -1.978966e-02
        48         4        2.355358e+00
        49         4       -3.374525e-02
        50         4        1.214869e+00
        51         4       -8.775312e-01
        52         4       -6.736286e-01
        53         4       -1.891016e+00
        54         4       -1.587469e+00
        55         4        7.328914e-01
        56         4        1.417001e+00
         1         5        7.193850e-01
         2         5       -8.509243e-01
         3         5        6.638734e-01
         4         5       -4.542345e-01
         5         5       -3.822110e-02
         6         5       -3.456983e-01
         7         5        2.671852e-01
         8         5        4.503372e-02
         9         5       -1.608562e+00
        10         5        8.760895e-01
        11         5        6.680558e-01
        12         5       -1.309468e+00
        13         5        5.165776e-01
        14         5        1.944924e-01
        15         5       -1.134236e+00
        16         5       -8.040334e-01
        17         5        1.285627e+00
        18         5        2.503371e-01
        19         5        2.413182e+00
        20         5       -2.162585e-01
        21         5        8.131396e-01
        22         5        2.022799e+00
        23         5       -1.057390e+00
        24         5        1.458589e+00
        25         5        6.276890e-01
        26         5       -1.066877e-01
        27         5       -9.210883e-02
        28         5       -1.588834e+00
        29         5       -6.682400e-02
        30         5       -4.985225e-01
        31         5        5.838723e-01
        32         5       -1.793660e+00
        33         5       -3.733145e-01
        34         5        7.274831e-02
        35         5       -6.655812e-01
        36         5        1.637430e-02
        37         5       -6.387654e-01
        38         5       -5.106888e-01
        39         5       -8.747694e-01
        40         5        1.080653e+00
        41         5       -3.562017e-01
        42         5       -9.323837e-01
        43         5        1.272198e+00
        44         5        6.738348e-01
        45         5        7.781295e-01
        46         5       -7.101152e-01
        47         5       -6.898777e-01
        48         5       -1.634306e-01
        49         5        1.143660e+00
        50         5        3.541817e-01
        51         5        1.200609e+00
        52         5        7.446679e-01
        53         5        9.477369e-01
        54         5        6.338151e-01
        55         5        5.689240e-01
        56         5        1.575145e+00
;

param theta:=
    1        3.445447e-01
    2       -3.477130e-02
    3        6.000540e-01
    4        8.552842e-01
    5        1.656312e-01
;
param X_true:=
    1        2.483182e+00
    2       -2.121792e+00
    3        2.597310e-02
    4        8.136162e-01
    5       -4.194366e-03
    6        2.672774e-01
    7        1.302391e+00
    8        2.138935e-01
    9        2.222926e+00
   10       -2.340129e+00
   11        1.425392e+00
   12        8.334345e-01
   13       -4.923532e-01
   14        1.340639e+00
   15        1.637993e-03
   16       -4.311262e-01
   17       -2.446166e-01
   18       -1.600055e+00
   19       -4.692109e-01
   20        1.627810e+00
   21        1.791228e-01
   22       -1.066023e+00
   23        1.336774e+00
   24       -5.270530e-01
   25       -1.340808e-03
   26       -6.197690e-01
   27        4.893147e-01
   28        1.166647e+00
   29        1.279287e+00
   30       -1.206811e+00
   31        8.455345e-02
   32       -1.365664e+00
   33        8.595136e-01
   34       -4.676313e-01
   35        6.194661e-01
   36        2.349485e+00
   37       -1.208367e+00
   38        2.429517e-02
   39       -1.552811e+00
   40       -6.782749e-01
   41        3.891609e-01
   42        8.327081e-02
   43        5.540378e-01
   44        1.114575e+00
   45       -1.426985e+00
   46       -1.027425e-01
   47       -3.835719e-01
   48        1.734372e+00
   49       -4.468116e-01
   50        1.497755e+00
   51       -1.836517e+00
   52       -7.149126e-02
   53       -1.695488e+00
   54       -7.582884e-01
   55        1.265924e+00
   56        1.457336e+00
;
param X:=
    1       -1.079952e+00
    2        1.137563e+00
    3       -6.084244e-01
    4       -9.682631e-01
    5        8.683572e-01
    6        6.902366e-01
    7       -8.480120e-01
    8        2.138935e-01
    9       -1.753777e-01
   10        1.095313e+00
   11       -2.137627e-01
   12        7.095689e-01
   13       -1.598866e+00
   14       -1.216027e+00
   15        1.637993e-03
   16        6.829779e-01
   17       -7.771244e-01
   18       -6.875792e-01
   19       -1.106486e+00
   20        2.730964e-01
   21       -1.377670e+00
   22        7.146427e-02
   23       -7.039219e-01
   24       -4.769018e-01
   25       -3.897726e-01
   26       -2.980646e-01
   27        2.495873e-01
   28        1.166647e+00
   29        9.546126e-01
   30        1.594336e+00
   31        4.459032e-01
   32        3.669375e+00
   33       -5.240822e-01
   34       -4.676313e-01
   35       -3.676899e-01
   36        3.023309e-01
   37        5.667404e-01
   38        2.429517e-02
   39       -2.296001e-01
   40       -5.266828e-01
   41       -9.719493e-01
   42        8.327081e-02
   43       -1.558054e-01
   44        1.114575e+00
   45        6.549254e-01
   46       -1.085631e+00
   47        6.858667e-01
   48       -2.876519e-01
   49       -6.484341e-01
   50        7.671083e-01
   51       -1.836517e+00
   52       -5.019136e-01
   53        4.069567e-01
   54        2.302644e-01
   55       -9.018112e-01
   56       -4.558809e-01
;
param outliervec:=
    1    1
    2    1
    3    1
    4    1
    5    1
    6    1
    7    1
    8    0
    9    1
   10    1
   11    1
   12    1
   13    1
   14    1
   15    0
   16    1
   17    1
   18    1
   19    1
   20    1
   21    1
   22    1
   23    1
   24    1
   25    1
   26    1
   27    1
   28    0
   29    1
   30    1
   31    1
   32    1
   33    1
   34    0
   35    1
   36    1
   37    1
   38    0
   39    1
   40    1
   41    1
   42    0
   43    1
   44    0
   45    1
   46    1
   47    1
   48    1
   49    1
   50    1
   51    0
   52    1
   53    1
   54    1
   55    1
   56    1
; 
param greedy_time :=         4.805806e-01
;